NAME: ACTUAL_TOURS/amz1411
TYPE: TOUR
COMMENT: RouteID_961361b8-30cc-4520-977d-63997913b07d
DIMENSION: 142
TOUR_SECTION
5
76
62
1
37
89
27
35
102
74
135
68
79
140
20
84
134
103
96
113
52
138
111
48
106
131
73
34
119
114
23
64
127
9
36
4
65
75
49
126
29
19
10
26
85
81
86
25
93
122
125
142
12
132
108
98
59
56
115
41
88
16
139
22
38
14
130
21
87
97
70
11
77
129
133
13
110
47
6
39
136
78
44
107
18
45
91
112
24
61
66
109
8
124
71
28
3
17
54
50
30
72
94
95
137
15
55
60
104
53
46
117
69
123
141
121
116
31
33
120
43
101
58
7
100
57
90
51
99
83
80
42
32
40
118
67
82
105
128
63
2
92
-1
EOF
